(set-info :smt-lib-version 2.6)
(set-logic LRA)
(set-info :source |
   Scholl, Christoph; Disch, Stefan; Pigorsch, Florian and Kupferschmid, 
   Stefan; Using an SMT Solver and Craig Interpolation to Detect and Remove 
   Redundant Linear Constraints in Representations of Non-Convex Polyhedra.
   Proceedings of 6th International Workshop on Satisfiability Modulo
   Theories, Princeton, USA, July 2008.
   <http://abs.informatik.uni-freiburg.de/smtbench/>
|)
(set-info :category "industrial")
(set-info :status sat)
(declare-fun lambda () Real)
(declare-fun lambdaprime () Real)
(declare-fun x4 () Real)
(declare-fun x3 () Real)
(declare-fun bool.b17 () Bool)
(declare-fun bool.b18 () Bool)
(declare-fun bool.b19 () Bool)
(declare-fun bool.b20 () Bool)
(declare-fun bool.b21 () Bool)
(declare-fun bool.b22 () Bool)
(declare-fun bool.b23 () Bool)
(declare-fun bool.b24 () Bool)
(assert (forall ((?lambda Real)) (let ((?v_2 (+ x4 (* 20 ?lambda))) (?v_4 (not bool.b22)) (?v_5 (not bool.b23)) (?v_6 (not bool.b20)) (?v_7 (not bool.b19)) (?v_8 (not bool.b18)) (?v_9 (not bool.b17)) (?v_13 (+ x3 (* (- 1) ?lambda)))) (let ((?v_0 (* 1 ?v_13))) (let ((?v_10 (<= ?v_0 0)) (?v_11 (<= (+ ?v_0 (* (/ 1 15) ?v_2)) (/ 964 3)))) (let ((?v_27 (not ?v_11))) (let ((?v_1 (not (and ?v_10 ?v_27)))) (let ((?v_61 (not (and bool.b18 ?v_1))) (?v_40 (not (and bool.b17 ?v_1))) (?v_3 (+ ?v_0 (* (/ 1 20) ?v_2)))) (let ((?v_35 (<= ?v_3 400)) (?v_24 (not (<= ?v_3 241)))) (let ((?v_64 (not (and (not (and bool.b19 ?v_1)) (not (and ?v_7 (not (and ?v_61 (not (and ?v_8 (not (and ?v_40 (not (and ?v_9 (not (and ?v_35 ?v_24)))))))))))))))) (let ((?v_65 (not (and (not (and bool.b20 ?v_1)) (not (and ?v_6 ?v_64)))))) (let ((?v_66 (not (and (not (and bool.b23 ?v_1)) (not (and ?v_5 ?v_65))))) (?v_26 (* (- 1) ?v_2))) (let ((?v_21 (<= ?v_26 (- 4500))) (?v_36 (* (/ (- 1) 20) ?v_2))) (let ((?v_12 (+ ?v_0 ?v_36))) (let ((?v_20 (and (<= ?v_12 (- 205)) (not (<= ?v_12 (- 209)))))) (let ((?v_14 (not ?v_20)) (?v_17 (* (- 1) ?v_13))) (let ((?v_39 (<= ?v_17 (- 30)))) (let ((?v_16 (not ?v_39)) (?v_22 (not ?v_10)) (?v_15 (+ ?v_0 (* (/ (- 1) 80) ?v_2)))) (let ((?v_18 (<= ?v_15 (/ (- 161) 4))) (?v_19 (not (<= ?v_17 (- 20))))) (let ((?v_41 (not (and (not ?v_21) (not (and (not (and ?v_10 (and ?v_11 (not (and (not (and (not (<= ?v_0 30)) ?v_14)) (not (and ?v_16 ?v_14))))))) (not (and ?v_22 (not (and (not (and (not ?v_18) (not (and (<= ?v_15 (/ (- 145) 4)) (and ?v_16 (not (and ?v_19 ?v_14))))))) (not (and ?v_18 (not (and ?v_19 ?v_20))))))))))))) (?v_62 (not (and ?v_10 ?v_11))) (?v_25 (<= ?v_0 20)) (?v_23 (+ ?v_0 (* (/ 3 20) ?v_2)))) (let ((?v_29 (<= ?v_23 1200))) (let ((?v_42 (not (and ?v_25 (and (not (and ?v_29 (not (<= ?v_23 723)))) (not (and ?v_11 ?v_24)))))) (?v_43 (not ?v_25)) (?v_28 (+ ?v_0 (* (/ 3 40) ?v_2)))) (let ((?v_46 (not (<= ?v_28 (/ 703 2)))) (?v_47 (<= ?v_28 610)) (?v_31 (<= ?v_28 359))) (let ((?v_50 (not ?v_31)) (?v_51 (not (<= ?v_28 (/ 743 2)))) (?v_30 (<= ?v_0 40))) (let ((?v_34 (and ?v_30 ?v_29)) (?v_38 (not ?v_30))) (let ((?v_49 (not (and ?v_38 ?v_31)))) (let ((?v_55 (not (and ?v_46 (and ?v_47 (and (not (and ?v_50 (not (and ?v_51 ?v_34)))) ?v_49))))) (?v_32 (+ ?v_0 (* (/ 1 40) ?v_2)))) (let ((?v_33 (<= ?v_32 133))) (let ((?v_44 (not (and ?v_11 (not (and (not (<= ?v_32 (/ 261 2))) (and (<= ?v_32 (/ 650 3)) (and (not (and (not ?v_33) (not (and ?v_30 (not (<= ?v_32 (/ 823 6))))))) (not (and ?v_33 (not ?v_34)))))))))) (?v_54 (<= ?v_26 (- 4910)))) (let ((?v_45 (not ?v_54)) (?v_37 (<= ?v_0 45)) (?v_63 (+ ?v_17 ?v_36))) (let ((?v_59 (not (and (not ?v_37) (not (<= ?v_63 (/ (- 581) 2)))))) (?v_60 (and ?v_38 (not (and (<= (+ ?v_0 (* (/ 1 60) ?v_2)) (/ 400 3)) (<= (+ ?v_17 (* (/ (- 1) 60) ?v_2)) (/ (- 731) 6))))))) (let ((?v_53 (not ?v_60)) (?v_52 (not (<= ?v_0 33)))) (let ((?v_48 (and ?v_53 (not (and ?v_30 (not (and ?v_52 (and ?v_39 (<= (+ ?v_17 (* (/ (- 1) 40) ?v_2)) (/ (- 623) 4)))))))))) (let ((?v_57 (not (and ?v_59 (not (and ?v_37 (not ?v_48)))))) (?v_56 (not ?v_47)) (?v_58 (not ?v_29))) (or (or (exists ((?lambdaprime Real)) (let ((?v_68 (* (- 1) (+ x4 (* 20 ?lambdaprime)))) (?v_69 (* 1 (+ x3 (* (- 1) ?lambdaprime))))) (let ((?v_67 (not (<= ?v_69 33)))) (and (and (<= 0 ?lambdaprime) (<= ?lambdaprime ?lambda)) (not (and (and (and (not (and bool.b17 (not (and (not (<= ?v_68 (- 4100))) ?v_67)))) (not (and bool.b18 (not (and ?v_67 (not (<= ?v_68 (- 4500)))))))) (not (and bool.b19 (not (and ?v_67 (not (<= ?v_68 (- 4910)))))))) (not (and bool.b20 (<= ?v_69 0))))))))) (< ?lambda 0)) (and (not (and bool.b21 (and (not (and bool.b22 ?v_1)) (not (and ?v_4 ?v_66))))) (not (and (not bool.b21) (and (not (and ?v_4 (not (and (not (and ?v_5 (not (and (not (and ?v_6 (not (and (not (and ?v_7 (not (and (not (and ?v_8 (not (and (not (and ?v_9 ?v_1)) (not (and bool.b17 (not (and ?v_41 (not (and ?v_21 (not (and ?v_62 (not (and ?v_22 (not (and (not (and (not bool.b24) (not (and ?v_42 (not (and ?v_43 (not (and (<= ?v_26 (- 4100)) (and (not (and ?v_27 ?v_55)) ?v_44))))))))) (not (and bool.b24 (not (and ?v_35 (not (and ?v_45 ?v_57)))))))))))))))))))))) (not (and bool.b18 (not (and ?v_40 (not (and ?v_9 (not (and ?v_41 (not (and ?v_21 (not (and ?v_42 (not (and ?v_43 (not (and (not (and (not ?v_35) (not (and ?v_44 (not (and ?v_27 (not (and (not (and ?v_45 (not (and ?v_46 (and (not (and ?v_56 (not (and ?v_37 ?v_48)))) (not (and ?v_47 (not (and ?v_49 (not (and ?v_50 (not (and ?v_51 (and (not (and ?v_58 (not (and ?v_30 ?v_52)))) (not (and ?v_29 (not (and ?v_37 ?v_53)))))))))))))))))) (not (and ?v_54 ?v_55)))))))))) (and ?v_44 (not (and ?v_27 (and ?v_45 (not (and ?v_46 (and (not (and ?v_56 ?v_57)) (not (and ?v_47 (not (and ?v_49 (not (and ?v_50 (not (and ?v_51 (and (not (and ?v_58 (not (and ?v_59 (not (and ?v_37 (not (and ?v_52 ?v_53)))))))) (not (and ?v_29 (not (and ?v_59 (not (and ?v_37 ?v_60)))))))))))))))))))))))))))))))))))))))))) (not (and bool.b19 (not (and ?v_61 (not (and ?v_8 (not (and ?v_40 (not (and ?v_9 (not (and ?v_62 (not (and ?v_22 (not (and ?v_35 (not (and (not (<= ?v_63 (/ (- 557) 2))) (not (and ?v_54 ?v_35)))))))))))))))))))))))) (not (and bool.b20 ?v_64)))))) (not (and bool.b23 ?v_65)))))) (not (and bool.b22 ?v_66)))))))))))))))))))))))))))))))))))))))))
(check-sat)
(exit)
